c SAT Generator for power-law distributed variable frequencies
c -g u -v 20 -c 91 -k 3 -p 2.750000 -b 3.200000 -f /home/schmidt/Devel/ni-kop-sat/data/ensemble/ruf20-91/ruf20-91-121 -u 1 -U 1 -s 2978787002
p cnf 20 91
8 15 -19 0
-5 14 15 0
9 -12 14 0
-9 -11 -15 0
-5 6 10 0
2 3 -19 0
1 18 -19 0
2 -10 -19 0
-2 -5 -11 0
6 13 18 0
16 -19 20 0
-13 17 -19 0
-11 15 17 0
1 7 17 0
-11 14 -19 0
-8 -9 17 0
6 -16 20 0
3 11 -14 0
-4 -6 15 0
2 11 19 0
3 5 -8 0
-1 4 15 0
-15 -16 -17 0
4 7 13 0
-9 -11 19 0
2 7 10 0
4 12 -19 0
3 11 20 0
9 12 -15 0
-5 6 14 0
6 12 -15 0
-4 17 19 0
-4 10 12 0
5 12 13 0
1 -2 -18 0
-9 11 12 0
8 -11 -18 0
6 -10 -20 0
5 8 17 0
4 11 13 0
7 9 -13 0
1 -8 12 0
-2 6 17 0
-7 -13 -17 0
1 -3 16 0
10 -14 18 0
-7 -9 -14 0
-3 -8 -17 0
-8 -12 -14 0
2 6 7 0
4 12 -17 0
-5 -9 13 0
1 -13 19 0
10 -18 19 0
-5 -7 -18 0
-2 -3 -15 0
-4 12 20 0
-9 -10 13 0
3 12 -15 0
-1 -4 -13 0
1 4 19 0
2 -3 11 0
-3 5 -17 0
2 -3 16 0
-3 -5 -8 0
-2 5 7 0
-2 11 -17 0
1 6 9 0
1 7 18 0
8 -13 15 0
-2 -13 -15 0
-7 -19 -20 0
-8 -17 20 0
5 9 17 0
-10 -17 -18 0
10 -12 15 0
-2 -8 15 0
3 6 -10 0
6 -11 -13 0
8 11 15 0
-8 -16 -19 0
-11 -13 -19 0
-2 -13 14 0
-3 6 -11 0
11 14 -16 0
2 3 10 0
-2 -10 13 0
1 -8 -20 0
-1 7 9 0
-9 16 -18 0
-2 6 14 0
